(set-info :smt-lib-version 2.6)

(set-info :source |
Generated by: Amar Shah
Generated on: 2024-12-11
Generator: Verus
Application: Verification of Rust Program
Target solver: z3
Time limit: 10
Benchmarks generated by the Rust verifier Verus (https://verus-lang.github.io/verus/guide/) on the project SplinterDB 
and processed using Mariposa (https://github.com/secure-foundations/mariposa).
This benchmarks was originally run with z3 with the following options:
    (set-option :auto_config false)
    (set-option :smt.mbqi false)
    (set-option :smt.case_split 3)
    (set-option :smt.qi.eager_threshold 100.0)
    (set-option :smt.delay_units true)
    (set-option :smt.arith.solver 2)
    (set-option :smt.arith.nl false)
    (set-option :pi.enabled false)
    (set-option :rewriter.sort_disjunctions false)
|)
(set-info :license "https://creativecommons.org/licenses/by/4.0/")
(set-info :category "industrial")
(set-info :status unsat)
(declare-sort %%Function%% 0)
(declare-sort FuelId 0)
(declare-sort Fuel 0)
(declare-const zero Fuel)
(declare-fun succ (Fuel) Fuel)
(declare-fun fuel_bool (FuelId) Bool)
(declare-fun fuel_bool_default (FuelId) Bool)
(declare-const fuel_defaults Bool)
(assert (=> fuel_defaults (forall ((id FuelId)) (! (= (fuel_bool id) (fuel_bool_default id)) :pattern ((fuel_bool id)) ))))
(declare-datatypes ((fndef 0)) (((fndef_singleton ))))
(declare-sort Poly 0)
(declare-sort Height 0)
(declare-fun I (Int) Poly)
(declare-fun B (Bool) Poly)
(declare-fun F (fndef) Poly)
(declare-fun %I (Poly) Int)
(declare-fun %B (Poly) Bool)
(declare-fun %F (Poly) fndef)
(declare-sort Type 0)
(declare-const BOOL Type)
(declare-const INT Type)
(declare-const NAT Type)
(declare-const CHAR Type)
(declare-fun UINT (Int) Type)
(declare-fun SINT (Int) Type)
(declare-fun CONST_INT (Int) Type)
(declare-sort Dcr 0)
(declare-const $ Dcr)
(declare-fun REF (Dcr) Dcr)
(declare-fun MUT_REF (Dcr) Dcr)
(declare-fun BOX (Dcr Type Dcr) Dcr)
(declare-fun RC (Dcr Type Dcr) Dcr)
(declare-fun ARC (Dcr Type Dcr) Dcr)
(declare-fun GHOST (Dcr) Dcr)
(declare-fun TRACKED (Dcr) Dcr)
(declare-fun NEVER (Dcr) Dcr)
(declare-fun CONST_PTR (Dcr) Dcr)
(declare-fun ARRAY (Dcr Type Dcr Type) Type)
(declare-fun SLICE (Dcr Type) Type)
(declare-const STRSLICE Type)
(declare-const ALLOCATOR_GLOBAL Type)
(declare-fun PTR (Dcr Type) Type)
(declare-fun has_type (Poly Type) Bool)
(declare-fun as_type (Poly Type) Poly)
(declare-fun mk_fun (%%Function%%) %%Function%%)
(declare-fun const_int (Type) Int)
(assert (forall ((i Int)) (! (= i (const_int (CONST_INT i))) :pattern ((CONST_INT i)) )))
(assert (forall ((b Bool)) (! (has_type (B b) BOOL) :pattern ((has_type (B b) BOOL)) )))
(assert (forall ((x Poly) (t Type)) (! (and (has_type (as_type x t) t) (=> (has_type x t) (= x (as_type x t)))) :pattern ((as_type x t)) )))
(assert (forall ((x %%Function%%)) (! (= (mk_fun x) x) :pattern ((mk_fun x)) )))
(assert (forall ((x Bool)) (! (= x (%B (B x))) :pattern ((B x)) )))
(assert (forall ((x Int)) (! (= x (%I (I x))) :pattern ((I x)) )))
(assert (forall ((x Poly)) (! (=> (has_type x BOOL) (= x (B (%B x)))) :pattern ((has_type x BOOL)) )))
(assert (forall ((x Poly)) (! (=> (has_type x INT) (= x (I (%I x)))) :pattern ((has_type x INT)) )))
(assert (forall ((x Poly)) (! (=> (has_type x NAT) (= x (I (%I x)))) :pattern ((has_type x NAT)) )))
(assert (forall ((bits Int) (x Poly)) (! (=> (has_type x (UINT bits)) (= x (I (%I x)))) :pattern ((has_type x (UINT bits))) )))
(assert (forall ((bits Int) (x Poly)) (! (=> (has_type x (SINT bits)) (= x (I (%I x)))) :pattern ((has_type x (SINT bits))) )))
(assert (forall ((x Poly)) (! (=> (has_type x CHAR) (= x (I (%I x)))) :pattern ((has_type x CHAR)) )))
(declare-fun ext_eq (Bool Type Poly Poly) Bool)
(assert (forall ((deep Bool) (t Type) (x Poly) (y Poly)) (! (= (= x y) (ext_eq deep t x y)) :pattern ((ext_eq deep t x y)) )))
(declare-const SZ Int)
(assert (or (= SZ 32) (= SZ 64)))
(declare-fun uHi (Int) Int)
(declare-fun iLo (Int) Int)
(declare-fun iHi (Int) Int)
(assert (= (uHi 8) 256))
(assert (= (uHi 16) 65536))
(assert (= (uHi 32) 4294967296))
(assert (= (uHi 64) 18446744073709551616))
(assert (= (uHi 128) (+ 1 340282366920938463463374607431768211455)))
(assert (= (iLo 8) (- 128)))
(assert (= (iLo 16) (- 32768)))
(assert (= (iLo 32) (- 2147483648)))
(assert (= (iLo 64) (- 9223372036854775808)))
(assert (= (iLo 128) (- 170141183460469231731687303715884105728)))
(assert (= (iHi 8) 128))
(assert (= (iHi 16) 32768))
(assert (= (iHi 32) 2147483648))
(assert (= (iHi 64) 9223372036854775808))
(assert (= (iHi 128) 170141183460469231731687303715884105728))
(declare-fun nClip (Int) Int)
(declare-fun uClip (Int Int) Int)
(declare-fun iClip (Int Int) Int)
(declare-fun charClip (Int) Int)
(assert (forall ((i Int)) (! (and (<= 0 (nClip i)) (=> (<= 0 i) (= i (nClip i)))) :pattern ((nClip i)) )))
(assert (forall ((bits Int) (i Int)) (! (and (<= 0 (uClip bits i)) (< (uClip bits i) (uHi bits)) (=> (and (<= 0 i) (< i (uHi bits))) (= i (uClip bits i)))) :pattern ((uClip bits i)) )))
(assert (forall ((bits Int) (i Int)) (! (and (<= (iLo bits) (iClip bits i)) (< (iClip bits i) (iHi bits)) (=> (and (<= (iLo bits) i) (< i (iHi bits))) (= i (iClip bits i)))) :pattern ((iClip bits i)) )))
(assert (forall ((i Int)) (! (and (or (and (<= 0 (charClip i)) (<= (charClip i) 55295)) (and (<= 57344 (charClip i)) (<= (charClip i) 1114111))) (=> (or (and (<= 0 i) (<= i 55295)) (and (<= 57344 i) (<= i 1114111))) (= i (charClip i)))) :pattern ((charClip i)) )))
(declare-fun uInv (Int Int) Bool)
(declare-fun iInv (Int Int) Bool)
(declare-fun charInv (Int) Bool)
(assert (forall ((bits Int) (i Int)) (! (= (uInv bits i) (and (<= 0 i) (< i (uHi bits)))) :pattern ((uInv bits i)) )))
(assert (forall ((bits Int) (i Int)) (! (= (iInv bits i) (and (<= (iLo bits) i) (< i (iHi bits)))) :pattern ((iInv bits i)) )))
(assert (forall ((i Int)) (! (= (charInv i) (or (and (<= 0 i) (<= i 55295)) (and (<= 57344 i) (<= i 1114111)))) :pattern ((charInv i)) )))
(assert (forall ((x Int)) (! (has_type (I x) INT) :pattern ((has_type (I x) INT)) )))
(assert (forall ((x Int)) (! (=> (<= 0 x) (has_type (I x) NAT)) :pattern ((has_type (I x) NAT)) )))
(assert (forall ((bits Int) (x Int)) (! (=> (uInv bits x) (has_type (I x) (UINT bits))) :pattern ((has_type (I x) (UINT bits))) )))
(assert (forall ((bits Int) (x Int)) (! (=> (iInv bits x) (has_type (I x) (SINT bits))) :pattern ((has_type (I x) (SINT bits))) )))
(assert (forall ((x Int)) (! (=> (charInv x) (has_type (I x) CHAR)) :pattern ((has_type (I x) CHAR)) )))
(assert (forall ((x Poly)) (! (=> (has_type x NAT) (<= 0 (%I x))) :pattern ((has_type x NAT)) )))
(assert (forall ((bits Int) (x Poly)) (! (=> (has_type x (UINT bits)) (uInv bits (%I x))) :pattern ((has_type x (UINT bits))) )))
(assert (forall ((bits Int) (x Poly)) (! (=> (has_type x (SINT bits)) (iInv bits (%I x))) :pattern ((has_type x (SINT bits))) )))
(declare-fun Add (Int Int) Int)
(declare-fun Sub (Int Int) Int)
(assert (forall ((x Int) (y Int)) (! (= (Add x y) (+ x y)) :pattern ((Add x y)))))
(assert (forall ((x Int) (y Int)) (! (= (Sub x y) (- x y)) :pattern ((Sub x y)))))
(declare-fun bitxor (Poly Poly) Int)
(declare-fun bitand (Poly Poly) Int)
(declare-fun bitor (Poly Poly) Int)
(declare-fun bitshr (Poly Poly) Int)
(declare-fun bitshl (Poly Poly) Int)
(declare-fun bitnot (Poly) Int)
(assert (forall ((x Poly) (y Poly) (bits Int)) (! (=> (and (uInv bits (%I x)) (uInv bits (%I y))) (uInv bits (bitxor x y))) :pattern ((uClip bits (bitxor x y))) )))
(assert (forall ((x Poly) (y Poly) (bits Int)) (! (=> (and (iInv bits (%I x)) (iInv bits (%I y))) (iInv bits (bitxor x y))) :pattern ((iClip bits (bitxor x y))) )))
(assert (forall ((x Poly) (y Poly) (bits Int)) (! (=> (and (uInv bits (%I x)) (uInv bits (%I y))) (uInv bits (bitor x y))) :pattern ((uClip bits (bitor x y))) )))
(assert (forall ((x Poly) (y Poly) (bits Int)) (! (=> (and (iInv bits (%I x)) (iInv bits (%I y))) (iInv bits (bitor x y))) :pattern ((iClip bits (bitor x y))) )))
(assert (forall ((x Poly) (y Poly) (bits Int)) (! (=> (and (uInv bits (%I x)) (uInv bits (%I y))) (uInv bits (bitand x y))) :pattern ((uClip bits (bitand x y))) )))
(assert (forall ((x Poly) (y Poly) (bits Int)) (! (=> (and (iInv bits (%I x)) (iInv bits (%I y))) (iInv bits (bitand x y))) :pattern ((iClip bits (bitand x y))) )))
(assert (forall ((x Poly) (y Poly) (bits Int)) (! (=> (and (uInv bits (%I x)) (<= 0 (%I y))) (uInv bits (bitshr x y))) :pattern ((uClip bits (bitshr x y))) )))
(assert (forall ((x Poly) (y Poly) (bits Int)) (! (=> (and (iInv bits (%I x)) (<= 0 (%I y))) (iInv bits (bitshr x y))) :pattern ((iClip bits (bitshr x y))) )))
(declare-fun singular_mod (Int Int) Int)
(declare-fun closure_req (Type Dcr Type Poly Poly) Bool)
(declare-fun closure_ens (Type Dcr Type Poly Poly Poly) Bool)
(declare-fun height (Poly) Height)
(declare-fun height_lt (Height Height) Bool)
(declare-fun fun_from_recursive_field (Poly) Poly)
(declare-fun check_decrease_int (Int Int Bool) Bool)
(assert (forall ((cur Int) (prev Int) (otherwise Bool)) (! (= (check_decrease_int cur prev otherwise) (or (and (<= 0 cur) (< cur prev)) (and (= cur prev) otherwise))) :pattern ((check_decrease_int cur prev otherwise)) )))
(declare-fun check_decrease_height (Poly Poly Bool) Bool)
(assert (forall ((cur Poly) (prev Poly) (otherwise Bool)) (! (= (check_decrease_height cur prev otherwise) (or (height_lt (height cur) (height prev)) (and (= (height cur) (height prev)) otherwise))) :pattern ((check_decrease_height cur prev otherwise)) )))
(declare-const fuel%vstd!map.impl&%0.new. FuelId)
(declare-const fuel%vstd!map.impl&%0.spec_index. FuelId)
(declare-const fuel%vstd!map.axiom_map_index_decreases_finite. FuelId)
(declare-const fuel%vstd!map.axiom_map_index_decreases_infinite. FuelId)
(declare-const fuel%vstd!map.axiom_map_ext_equal. FuelId)
(declare-const fuel%vstd!map.axiom_map_ext_equal_deep. FuelId)
(declare-const fuel%vstd!map_lib.impl&%0.contains_key. FuelId)
(declare-const fuel%vstd!set.axiom_set_new. FuelId)
(declare-const fuel%vstd!set.axiom_set_ext_equal. FuelId)
(declare-const fuel%vstd!set.axiom_set_ext_equal_deep. FuelId)
(declare-const fuel%vstd!set.axiom_mk_map_domain. FuelId)
(declare-const fuel%vstd!set.axiom_mk_map_index. FuelId)
(declare-const fuel%lib!betree.Buffer_v.total_keys. FuelId)
(declare-const fuel%lib!betree.OffsetMap_v.impl&%0.is_total. FuelId)
(declare-const fuel%lib!betree.OffsetMap_v.impl&%0.get. FuelId)
(declare-const fuel%lib!betree.OffsetMap_v.impl&%0.active_keys. FuelId)
(declare-const fuel%lib!betree.OffsetMap_v.impl&%0.decrement. FuelId)
(declare-const fuel%vstd!array.group_array_axioms. FuelId)
(declare-const fuel%vstd!map.group_map_axioms. FuelId)
(declare-const fuel%vstd!multiset.group_multiset_axioms. FuelId)
(declare-const fuel%vstd!raw_ptr.group_raw_ptr_axioms. FuelId)
(declare-const fuel%vstd!seq.group_seq_axioms. FuelId)
(declare-const fuel%vstd!seq_lib.group_seq_lib_default. FuelId)
(declare-const fuel%vstd!set.group_set_axioms. FuelId)
(declare-const fuel%vstd!set_lib.group_set_lib_axioms. FuelId)
(declare-const fuel%vstd!slice.group_slice_axioms. FuelId)
(declare-const fuel%vstd!string.group_string_axioms. FuelId)
(declare-const fuel%vstd!std_specs.bits.group_bits_axioms. FuelId)
(declare-const fuel%vstd!std_specs.control_flow.group_control_flow_axioms. FuelId)
(declare-const fuel%vstd!std_specs.range.group_range_axioms. FuelId)
(declare-const fuel%vstd!std_specs.vec.group_vec_axioms. FuelId)
(declare-const fuel%vstd!group_vstd_default. FuelId)
(assert (distinct fuel%vstd!map.impl&%0.new. fuel%vstd!map.impl&%0.spec_index. fuel%vstd!map.axiom_map_index_decreases_finite. fuel%vstd!map.axiom_map_index_decreases_infinite. fuel%vstd!map.axiom_map_ext_equal. fuel%vstd!map.axiom_map_ext_equal_deep. fuel%vstd!map_lib.impl&%0.contains_key. fuel%vstd!set.axiom_set_new. fuel%vstd!set.axiom_set_ext_equal. fuel%vstd!set.axiom_set_ext_equal_deep. fuel%vstd!set.axiom_mk_map_domain. fuel%vstd!set.axiom_mk_map_index. fuel%lib!betree.Buffer_v.total_keys. fuel%lib!betree.OffsetMap_v.impl&%0.is_total. fuel%lib!betree.OffsetMap_v.impl&%0.get. fuel%lib!betree.OffsetMap_v.impl&%0.active_keys. fuel%lib!betree.OffsetMap_v.impl&%0.decrement. fuel%vstd!array.group_array_axioms. fuel%vstd!map.group_map_axioms. fuel%vstd!multiset.group_multiset_axioms. fuel%vstd!raw_ptr.group_raw_ptr_axioms. fuel%vstd!seq.group_seq_axioms. fuel%vstd!seq_lib.group_seq_lib_default. fuel%vstd!set.group_set_axioms. fuel%vstd!set_lib.group_set_lib_axioms. fuel%vstd!slice.group_slice_axioms. fuel%vstd!string.group_string_axioms. fuel%vstd!std_specs.bits.group_bits_axioms. fuel%vstd!std_specs.control_flow.group_control_flow_axioms. fuel%vstd!std_specs.range.group_range_axioms. fuel%vstd!std_specs.vec.group_vec_axioms. fuel%vstd!group_vstd_default.))
(assert (=> (fuel_bool_default fuel%vstd!map.group_map_axioms.) (and (fuel_bool_default fuel%vstd!map.axiom_map_index_decreases_finite.) (fuel_bool_default fuel%vstd!map.axiom_map_index_decreases_infinite.) (fuel_bool_default fuel%vstd!map.axiom_map_ext_equal.) (fuel_bool_default fuel%vstd!map.axiom_map_ext_equal_deep.))))
(assert (=> (fuel_bool_default fuel%vstd!set.group_set_axioms.) (and (fuel_bool_default fuel%vstd!set.axiom_set_new.) (fuel_bool_default fuel%vstd!set.axiom_set_ext_equal.) (fuel_bool_default fuel%vstd!set.axiom_set_ext_equal_deep.) (fuel_bool_default fuel%vstd!set.axiom_mk_map_domain.) (fuel_bool_default fuel%vstd!set.axiom_mk_map_index.))))
(assert (fuel_bool_default fuel%vstd!group_vstd_default.))
(assert (=> (fuel_bool_default fuel%vstd!group_vstd_default.) (and (fuel_bool_default fuel%vstd!seq.group_seq_axioms.) (fuel_bool_default fuel%vstd!seq_lib.group_seq_lib_default.) (fuel_bool_default fuel%vstd!map.group_map_axioms.) (fuel_bool_default fuel%vstd!set.group_set_axioms.) (fuel_bool_default fuel%vstd!set_lib.group_set_lib_axioms.) (fuel_bool_default fuel%vstd!std_specs.bits.group_bits_axioms.) (fuel_bool_default fuel%vstd!std_specs.control_flow.group_control_flow_axioms.) (fuel_bool_default fuel%vstd!std_specs.vec.group_vec_axioms.) (fuel_bool_default fuel%vstd!slice.group_slice_axioms.) (fuel_bool_default fuel%vstd!array.group_array_axioms.) (fuel_bool_default fuel%vstd!multiset.group_multiset_axioms.) (fuel_bool_default fuel%vstd!string.group_string_axioms.) (fuel_bool_default fuel%vstd!std_specs.range.group_range_axioms.) (fuel_bool_default fuel%vstd!raw_ptr.group_raw_ptr_axioms.))))
(declare-sort vstd!map.Map<lib!spec.KeyType_t.Key./nat.>. 0)
(declare-sort vstd!set.Set<lib!spec.KeyType_t.Key.>. 0)
(declare-datatypes ((lib!betree.OffsetMap_v.OffsetMap. 0) (lib!spec.KeyType_t.Key. 0) (tuple%0. 0)) (((lib!betree.OffsetMap_v.OffsetMap./OffsetMap (lib!betree.OffsetMap_v.OffsetMap./OffsetMap/?offsets vstd!map.Map<lib!spec.KeyType_t.Key./nat.>.))) ((lib!spec.KeyType_t.Key./Key (lib!spec.KeyType_t.Key./Key/?0 Int))) ((tuple%0./tuple%0 ))))
(declare-fun lib!betree.OffsetMap_v.OffsetMap./OffsetMap/offsets (lib!betree.OffsetMap_v.OffsetMap.) vstd!map.Map<lib!spec.KeyType_t.Key./nat.>.)
(declare-fun lib!spec.KeyType_t.Key./Key/0 (lib!spec.KeyType_t.Key.) Int)
(declare-fun TYPE%fun%1. (Dcr Type Dcr Type) Type)
(declare-fun TYPE%vstd!map.Map. (Dcr Type Dcr Type) Type)
(declare-fun TYPE%vstd!set.Set. (Dcr Type) Type)
(declare-const TYPE%lib!betree.OffsetMap_v.OffsetMap. Type)
(declare-const TYPE%lib!spec.KeyType_t.Key. Type)
(declare-const TYPE%tuple%0. Type)
(declare-fun Poly%fun%1. (%%Function%%) Poly)
(declare-fun %Poly%fun%1. (Poly) %%Function%%)
(declare-fun Poly%vstd!map.Map<lib!spec.KeyType_t.Key./nat.>. (vstd!map.Map<lib!spec.KeyType_t.Key./nat.>.) Poly)
(declare-fun %Poly%vstd!map.Map<lib!spec.KeyType_t.Key./nat.>. (Poly) vstd!map.Map<lib!spec.KeyType_t.Key./nat.>.)
(declare-fun Poly%vstd!set.Set<lib!spec.KeyType_t.Key.>. (vstd!set.Set<lib!spec.KeyType_t.Key.>.) Poly)
(declare-fun %Poly%vstd!set.Set<lib!spec.KeyType_t.Key.>. (Poly) vstd!set.Set<lib!spec.KeyType_t.Key.>.)
(declare-fun Poly%lib!betree.OffsetMap_v.OffsetMap. (lib!betree.OffsetMap_v.OffsetMap.) Poly)
(declare-fun %Poly%lib!betree.OffsetMap_v.OffsetMap. (Poly) lib!betree.OffsetMap_v.OffsetMap.)
(declare-fun Poly%lib!spec.KeyType_t.Key. (lib!spec.KeyType_t.Key.) Poly)
(declare-fun %Poly%lib!spec.KeyType_t.Key. (Poly) lib!spec.KeyType_t.Key.)
(declare-fun Poly%tuple%0. (tuple%0.) Poly)
(declare-fun %Poly%tuple%0. (Poly) tuple%0.)
(assert (forall ((x %%Function%%)) (! (= x (%Poly%fun%1. (Poly%fun%1. x))) :pattern ((Poly%fun%1. x)) )))
(assert (forall ((T%0&. Dcr) (T%0& Type) (T%1&. Dcr) (T%1& Type) (x Poly)) (! (=> (has_type x (TYPE%fun%1. T%0&. T%0& T%1&. T%1&)) (= x (Poly%fun%1. (%Poly%fun%1. x)))) :pattern ((has_type x (TYPE%fun%1. T%0&. T%0& T%1&. T%1&))) )))
(declare-fun %%apply%%0 (%%Function%% Poly) Poly)
(assert (forall ((T%0&. Dcr) (T%0& Type) (T%1&. Dcr) (T%1& Type) (x %%Function%%)) (! (=> (forall ((T%0 Poly)) (! (=> (has_type T%0 T%0&) (has_type (%%apply%%0 x T%0) T%1&)) :pattern ((has_type (%%apply%%0 x T%0) T%1&)) )) (has_type (Poly%fun%1. (mk_fun x)) (TYPE%fun%1. T%0&. T%0& T%1&. T%1&))) :pattern ((has_type (Poly%fun%1. (mk_fun x)) (TYPE%fun%1. T%0&. T%0& T%1&. T%1&))) )))
(assert (forall ((T%0&. Dcr) (T%0& Type) (T%1&. Dcr) (T%1& Type) (T%0 Poly) (x %%Function%%)) (! (=> (and (has_type (Poly%fun%1. x) (TYPE%fun%1. T%0&. T%0& T%1&. T%1&)) (has_type T%0 T%0&)) (has_type (%%apply%%0 x T%0) T%1&)) :pattern ((%%apply%%0 x T%0) (has_type (Poly%fun%1. x) (TYPE%fun%1. T%0&. T%0& T%1&. T%1&))) )))
(assert (forall ((T%0&. Dcr) (T%0& Type) (T%1&. Dcr) (T%1& Type) (T%0 Poly) (x %%Function%%)) (! (=> (and (has_type (Poly%fun%1. x) (TYPE%fun%1. T%0&. T%0& T%1&. T%1&)) (has_type T%0 T%0&)) (height_lt (height (%%apply%%0 x T%0)) (height (fun_from_recursive_field (Poly%fun%1. (mk_fun x)))))) :pattern ((height (%%apply%%0 x T%0)) (has_type (Poly%fun%1. x) (TYPE%fun%1. T%0&. T%0& T%1&. T%1&))) )))
(assert (forall ((T%0&. Dcr) (T%0& Type) (T%1&. Dcr) (T%1& Type) (deep Bool) (x Poly) (y Poly)) (! (=> (and (has_type x (TYPE%fun%1. T%0&. T%0& T%1&. T%1&)) (has_type y (TYPE%fun%1. T%0&. T%0& T%1&. T%1&)) (forall ((T%0 Poly)) (! (=> (has_type T%0 T%0&) (ext_eq deep T%1& (%%apply%%0 (%Poly%fun%1. x) T%0) (%%apply%%0 (%Poly%fun%1. y) T%0))) :pattern ((ext_eq deep T%1& (%%apply%%0 (%Poly%fun%1. x) T%0) (%%apply%%0 (%Poly%fun%1. y) T%0))) ))) (ext_eq deep (TYPE%fun%1. T%0&. T%0& T%1&. T%1&) x y)) :pattern ((ext_eq deep (TYPE%fun%1. T%0&. T%0& T%1&. T%1&) x y)) )))
(assert (forall ((x vstd!map.Map<lib!spec.KeyType_t.Key./nat.>.)) (! (= x (%Poly%vstd!map.Map<lib!spec.KeyType_t.Key./nat.>. (Poly%vstd!map.Map<lib!spec.KeyType_t.Key./nat.>. x))) :pattern ((Poly%vstd!map.Map<lib!spec.KeyType_t.Key./nat.>. x)) )))
(assert (forall ((x Poly)) (! (=> (has_type x (TYPE%vstd!map.Map. $ TYPE%lib!spec.KeyType_t.Key. $ NAT)) (= x (Poly%vstd!map.Map<lib!spec.KeyType_t.Key./nat.>. (%Poly%vstd!map.Map<lib!spec.KeyType_t.Key./nat.>. x)))) :pattern ((has_type x (TYPE%vstd!map.Map. $ TYPE%lib!spec.KeyType_t.Key. $ NAT))) )))
(assert (forall ((x vstd!map.Map<lib!spec.KeyType_t.Key./nat.>.)) (! (has_type (Poly%vstd!map.Map<lib!spec.KeyType_t.Key./nat.>. x) (TYPE%vstd!map.Map. $ TYPE%lib!spec.KeyType_t.Key. $ NAT)) :pattern ((has_type (Poly%vstd!map.Map<lib!spec.KeyType_t.Key./nat.>. x) (TYPE%vstd!map.Map. $ TYPE%lib!spec.KeyType_t.Key. $ NAT))) )))
(assert (forall ((x vstd!set.Set<lib!spec.KeyType_t.Key.>.)) (! (= x (%Poly%vstd!set.Set<lib!spec.KeyType_t.Key.>. (Poly%vstd!set.Set<lib!spec.KeyType_t.Key.>. x))) :pattern ((Poly%vstd!set.Set<lib!spec.KeyType_t.Key.>. x)) )))
(assert (forall ((x Poly)) (! (=> (has_type x (TYPE%vstd!set.Set. $ TYPE%lib!spec.KeyType_t.Key.)) (= x (Poly%vstd!set.Set<lib!spec.KeyType_t.Key.>. (%Poly%vstd!set.Set<lib!spec.KeyType_t.Key.>. x)))) :pattern ((has_type x (TYPE%vstd!set.Set. $ TYPE%lib!spec.KeyType_t.Key.))) )))
(assert (forall ((x vstd!set.Set<lib!spec.KeyType_t.Key.>.)) (! (has_type (Poly%vstd!set.Set<lib!spec.KeyType_t.Key.>. x) (TYPE%vstd!set.Set. $ TYPE%lib!spec.KeyType_t.Key.)) :pattern ((has_type (Poly%vstd!set.Set<lib!spec.KeyType_t.Key.>. x) (TYPE%vstd!set.Set. $ TYPE%lib!spec.KeyType_t.Key.))) )))
(assert (forall ((x lib!betree.OffsetMap_v.OffsetMap.)) (! (= x (%Poly%lib!betree.OffsetMap_v.OffsetMap. (Poly%lib!betree.OffsetMap_v.OffsetMap. x))) :pattern ((Poly%lib!betree.OffsetMap_v.OffsetMap. x)) )))
(assert (forall ((x Poly)) (! (=> (has_type x TYPE%lib!betree.OffsetMap_v.OffsetMap.) (= x (Poly%lib!betree.OffsetMap_v.OffsetMap. (%Poly%lib!betree.OffsetMap_v.OffsetMap. x)))) :pattern ((has_type x TYPE%lib!betree.OffsetMap_v.OffsetMap.)) )))
(assert (forall ((x lib!betree.OffsetMap_v.OffsetMap.)) (! (= (lib!betree.OffsetMap_v.OffsetMap./OffsetMap/offsets x) (lib!betree.OffsetMap_v.OffsetMap./OffsetMap/?offsets x)) :pattern ((lib!betree.OffsetMap_v.OffsetMap./OffsetMap/offsets x)) )))
(assert (forall ((x lib!betree.OffsetMap_v.OffsetMap.)) (! (has_type (Poly%lib!betree.OffsetMap_v.OffsetMap. x) TYPE%lib!betree.OffsetMap_v.OffsetMap.) :pattern ((has_type (Poly%lib!betree.OffsetMap_v.OffsetMap. x) TYPE%lib!betree.OffsetMap_v.OffsetMap.)) )))
(assert (forall ((deep Bool) (x Poly) (y Poly)) (! (=> (and (has_type x TYPE%lib!betree.OffsetMap_v.OffsetMap.) (has_type y TYPE%lib!betree.OffsetMap_v.OffsetMap.) (ext_eq deep (TYPE%vstd!map.Map. $ TYPE%lib!spec.KeyType_t.Key. $ NAT) (Poly%vstd!map.Map<lib!spec.KeyType_t.Key./nat.>. (lib!betree.OffsetMap_v.OffsetMap./OffsetMap/offsets (%Poly%lib!betree.OffsetMap_v.OffsetMap. x))) (Poly%vstd!map.Map<lib!spec.KeyType_t.Key./nat.>. (lib!betree.OffsetMap_v.OffsetMap./OffsetMap/offsets (%Poly%lib!betree.OffsetMap_v.OffsetMap. y))))) (ext_eq deep TYPE%lib!betree.OffsetMap_v.OffsetMap. x y)) :pattern ((ext_eq deep TYPE%lib!betree.OffsetMap_v.OffsetMap. x y)) )))
(assert (forall ((x lib!spec.KeyType_t.Key.)) (! (= x (%Poly%lib!spec.KeyType_t.Key. (Poly%lib!spec.KeyType_t.Key. x))) :pattern ((Poly%lib!spec.KeyType_t.Key. x)) )))
(assert (forall ((x Poly)) (! (=> (has_type x TYPE%lib!spec.KeyType_t.Key.) (= x (Poly%lib!spec.KeyType_t.Key. (%Poly%lib!spec.KeyType_t.Key. x)))) :pattern ((has_type x TYPE%lib!spec.KeyType_t.Key.)) )))
(assert (forall ((_0! Int)) (! (=> (uInv 64 _0!) (has_type (Poly%lib!spec.KeyType_t.Key. (lib!spec.KeyType_t.Key./Key _0!)) TYPE%lib!spec.KeyType_t.Key.)) :pattern ((has_type (Poly%lib!spec.KeyType_t.Key. (lib!spec.KeyType_t.Key./Key _0!)) TYPE%lib!spec.KeyType_t.Key.)) )))
(assert (forall ((x lib!spec.KeyType_t.Key.)) (! (= (lib!spec.KeyType_t.Key./Key/0 x) (lib!spec.KeyType_t.Key./Key/?0 x)) :pattern ((lib!spec.KeyType_t.Key./Key/0 x)) )))
(assert (forall ((x Poly)) (! (=> (has_type x TYPE%lib!spec.KeyType_t.Key.) (uInv 64 (lib!spec.KeyType_t.Key./Key/0 (%Poly%lib!spec.KeyType_t.Key. x)))) :pattern ((lib!spec.KeyType_t.Key./Key/0 (%Poly%lib!spec.KeyType_t.Key. x)) (has_type x TYPE%lib!spec.KeyType_t.Key.)) )))
(assert (forall ((x tuple%0.)) (! (= x (%Poly%tuple%0. (Poly%tuple%0. x))) :pattern ((Poly%tuple%0. x)) )))
(assert (forall ((x Poly)) (! (=> (has_type x TYPE%tuple%0.) (= x (Poly%tuple%0. (%Poly%tuple%0. x)))) :pattern ((has_type x TYPE%tuple%0.)) )))
(assert (forall ((x tuple%0.)) (! (has_type (Poly%tuple%0. x) TYPE%tuple%0.) :pattern ((has_type (Poly%tuple%0. x) TYPE%tuple%0.)) )))
(declare-fun vstd!map.impl&%0.dom.? (Dcr Type Dcr Type Poly) Poly)
(declare-fun vstd!set.impl&%0.contains.? (Dcr Type Poly Poly) Bool)
(declare-fun vstd!map.impl&%0.index.? (Dcr Type Dcr Type Poly Poly) Poly)
(declare-fun vstd!set.impl&%0.finite.? (Dcr Type Poly) Bool)
(declare-fun vstd!map.impl&%0.spec_index.? (Dcr Type Dcr Type Poly Poly) Poly)
(declare-fun vstd!set.impl&%0.new.? (Dcr Type Dcr Type Poly) Poly)
(declare-fun vstd!set.impl&%0.mk_map.? (Dcr Type Dcr Type Dcr Type Poly Poly) Poly)
(declare-fun vstd!map_lib.impl&%0.contains_key.? (Dcr Type Dcr Type Poly Poly) Bool)
(declare-fun vstd!map.impl&%0.new.? (Dcr Type Dcr Type Dcr Type Dcr Type Poly Poly) Poly)
(declare-fun lib!betree.Buffer_v.total_keys.? (Poly) Bool)
(declare-fun lib!betree.OffsetMap_v.impl&%0.decrement.? (Poly Poly) lib!betree.OffsetMap_v.OffsetMap.)
(declare-fun lib!betree.OffsetMap_v.impl&%0.is_total.? (Poly) Bool)
(declare-fun lib!betree.OffsetMap_v.impl&%0.active_keys.? (Poly Poly) vstd!set.Set<lib!spec.KeyType_t.Key.>.)
(declare-fun lib!betree.OffsetMap_v.impl&%0.get.? (Poly Poly) Int)
(assert (forall ((K&. Dcr) (K& Type) (V&. Dcr) (V& Type) (self! Poly)) (! (=> (has_type self! (TYPE%vstd!map.Map. K&. K& V&. V&)) (has_type (vstd!map.impl&%0.dom.? K&. K& V&. V& self!) (TYPE%vstd!set.Set. K&. K&))) :pattern ((vstd!map.impl&%0.dom.? K&. K& V&. V& self!)) )))
(declare-fun req%vstd!map.impl&%0.index. (Dcr Type Dcr Type Poly Poly) Bool)
(declare-const %%global_location_label%%0 Bool)
(assert (forall ((K&. Dcr) (K& Type) (V&. Dcr) (V& Type) (self! Poly) (key! Poly)) (! (= (req%vstd!map.impl&%0.index. K&. K& V&. V& self! key!) (=> %%global_location_label%%0 (vstd!set.impl&%0.contains.? K&. K& (vstd!map.impl&%0.dom.? K&. K& V&. V& self!) key!))) :pattern ((req%vstd!map.impl&%0.index. K&. K& V&. V& self! key!)) )))
(assert (forall ((K&. Dcr) (K& Type) (V&. Dcr) (V& Type) (self! Poly) (key! Poly)) (! (=> (and (has_type self! (TYPE%vstd!map.Map. K&. K& V&. V&)) (has_type key! K&)) (has_type (vstd!map.impl&%0.index.? K&. K& V&. V& self! key!) V&)) :pattern ((vstd!map.impl&%0.index.? K&. K& V&. V& self! key!)) )))
(declare-fun req%vstd!map.impl&%0.spec_index. (Dcr Type Dcr Type Poly Poly) Bool)
(declare-const %%global_location_label%%1 Bool)
(assert (forall ((K&. Dcr) (K& Type) (V&. Dcr) (V& Type) (self! Poly) (key! Poly)) (! (= (req%vstd!map.impl&%0.spec_index. K&. K& V&. V& self! key!) (=> %%global_location_label%%1 (vstd!set.impl&%0.contains.? K&. K& (vstd!map.impl&%0.dom.? K&. K& V&. V& self!) key!))) :pattern ((req%vstd!map.impl&%0.spec_index. K&. K& V&. V& self! key!)) )))
(assert (fuel_bool_default fuel%vstd!map.impl&%0.spec_index.))
(assert (=> (fuel_bool fuel%vstd!map.impl&%0.spec_index.) (forall ((K&. Dcr) (K& Type) (V&. Dcr) (V& Type) (self! Poly) (key! Poly)) (! (= (vstd!map.impl&%0.spec_index.? K&. K& V&. V& self! key!) (vstd!map.impl&%0.index.? K&. K& V&. V& self! key!)) :pattern ((vstd!map.impl&%0.spec_index.? K&. K& V&. V& self! key!)) ))))
(assert (forall ((K&. Dcr) (K& Type) (V&. Dcr) (V& Type) (self! Poly) (key! Poly)) (! (=> (and (has_type self! (TYPE%vstd!map.Map. K&. K& V&. V&)) (has_type key! K&)) (has_type (vstd!map.impl&%0.spec_index.? K&. K& V&. V& self! key!) V&)) :pattern ((vstd!map.impl&%0.spec_index.? K&. K& V&. V& self! key!)) )))
(assert (=> (fuel_bool fuel%vstd!map.axiom_map_index_decreases_finite.) (forall ((K&. Dcr) (K& Type) (V&. Dcr) (V& Type) (m! Poly) (key! Poly)) (! (=> (and (has_type m! (TYPE%vstd!map.Map. K&. K& V&. V&)) (has_type key! K&)) (=> (and (vstd!set.impl&%0.finite.? K&. K& (vstd!map.impl&%0.dom.? K&. K& V&. V& m!)) (vstd!set.impl&%0.contains.? K&. K& (vstd!map.impl&%0.dom.? K&. K& V&. V& m!) key!)) (height_lt (height (vstd!map.impl&%0.index.? K&. K& V&. V& m! key!)) (height m!)))) :pattern ((height (vstd!map.impl&%0.index.? K&. K& V&. V& m! key!))) ))))
(assert (=> (fuel_bool fuel%vstd!map.axiom_map_index_decreases_infinite.) (forall ((K&. Dcr) (K& Type) (V&. Dcr) (V& Type) (m! Poly) (key! Poly)) (! (=> (and (has_type m! (TYPE%vstd!map.Map. K&. K& V&. V&)) (has_type key! K&)) (=> (vstd!set.impl&%0.contains.? K&. K& (vstd!map.impl&%0.dom.? K&. K& V&. V& m!) key!) (height_lt (height (vstd!map.impl&%0.index.? K&. K& V&. V& m! key!)) (height (fun_from_recursive_field m!))))) :pattern ((height (vstd!map.impl&%0.index.? K&. K& V&. V& m! key!))) ))))
(assert (=> (fuel_bool fuel%vstd!map.axiom_map_ext_equal.) (forall ((K&. Dcr) (K& Type) (V&. Dcr) (V& Type) (m1! Poly) (m2! Poly)) (! (=> (and (has_type m1! (TYPE%vstd!map.Map. K&. K& V&. V&)) (has_type m2! (TYPE%vstd!map.Map. K&. K& V&. V&))) (= (ext_eq false (TYPE%vstd!map.Map. K&. K& V&. V&) m1! m2!) (and (ext_eq false (TYPE%vstd!set.Set. K&. K&) (vstd!map.impl&%0.dom.? K&. K& V&. V& m1!) (vstd!map.impl&%0.dom.? K&. K& V&. V& m2!)) (forall ((k$ Poly)) (! (=> (has_type k$ K&) (=> (vstd!set.impl&%0.contains.? K&. K& (vstd!map.impl&%0.dom.? K&. K& V&. V& m1!) k$) (= (vstd!map.impl&%0.index.? K&. K& V&. V& m1! k$) (vstd!map.impl&%0.index.? K&. K& V&. V& m2! k$)))) :pattern ((vstd!map.impl&%0.index.? K&. K& V&. V& m1! k$)) :pattern ((vstd!map.impl&%0.index.? K&. K& V&. V& m2! k$)) ))))) :pattern ((ext_eq false (TYPE%vstd!map.Map. K&. K& V&. V&) m1! m2!)) ))))
(assert (=> (fuel_bool fuel%vstd!map.axiom_map_ext_equal_deep.) (forall ((K&. Dcr) (K& Type) (V&. Dcr) (V& Type) (m1! Poly) (m2! Poly)) (! (=> (and (has_type m1! (TYPE%vstd!map.Map. K&. K& V&. V&)) (has_type m2! (TYPE%vstd!map.Map. K&. K& V&. V&))) (= (ext_eq true (TYPE%vstd!map.Map. K&. K& V&. V&) m1! m2!) (and (ext_eq true (TYPE%vstd!set.Set. K&. K&) (vstd!map.impl&%0.dom.? K&. K& V&. V& m1!) (vstd!map.impl&%0.dom.? K&. K& V&. V& m2!)) (forall ((k$ Poly)) (! (=> (has_type k$ K&) (=> (vstd!set.impl&%0.contains.? K&. K& (vstd!map.impl&%0.dom.? K&. K& V&. V& m1!) k$) (ext_eq true V& (vstd!map.impl&%0.index.? K&. K& V&. V& m1! k$) (vstd!map.impl&%0.index.? K&. K& V&. V& m2! k$)))) :pattern ((vstd!map.impl&%0.index.? K&. K& V&. V& m1! k$)) :pattern ((vstd!map.impl&%0.index.? K&. K& V&. V& m2! k$)) ))))) :pattern ((ext_eq true (TYPE%vstd!map.Map. K&. K& V&. V&) m1! m2!)) ))))
(assert (forall ((A&. Dcr) (A& Type) (F&. Dcr) (F& Type) (f! Poly)) (! (=> (has_type f! F&) (has_type (vstd!set.impl&%0.new.? A&. A& F&. F& f!) (TYPE%vstd!set.Set. A&. A&))) :pattern ((vstd!set.impl&%0.new.? A&. A& F&. F& f!)) )))
(assert (forall ((A&. Dcr) (A& Type) (V&. Dcr) (V& Type) (F&. Dcr) (F& Type) (self! Poly) (f! Poly)) (! (=> (and (has_type self! (TYPE%vstd!set.Set. A&. A&)) (has_type f! F&)) (has_type (vstd!set.impl&%0.mk_map.? A&. A& V&. V& F&. F& self! f!) (TYPE%vstd!map.Map. A&. A& V&. V&))) :pattern ((vstd!set.impl&%0.mk_map.? A&. A& V&. V& F&. F& self! f!)) )))
(assert (=> (fuel_bool fuel%vstd!set.axiom_set_new.) (forall ((A&. Dcr) (A& Type) (f! Poly) (a! Poly)) (! (=> (and (has_type f! (TYPE%fun%1. A&. A& $ BOOL)) (has_type a! A&)) (= (vstd!set.impl&%0.contains.? A&. A& (vstd!set.impl&%0.new.? A&. A& $ (TYPE%fun%1. A&. A& $ BOOL) f!) a!) (%B (%%apply%%0 (%Poly%fun%1. f!) a!)))) :pattern ((vstd!set.impl&%0.contains.? A&. A& (vstd!set.impl&%0.new.? A&. A& $ (TYPE%fun%1. A&. A& $ BOOL) f!) a!)) ))))
(assert (=> (fuel_bool fuel%vstd!set.axiom_set_ext_equal.) (forall ((A&. Dcr) (A& Type) (s1! Poly) (s2! Poly)) (! (=> (and (has_type s1! (TYPE%vstd!set.Set. A&. A&)) (has_type s2! (TYPE%vstd!set.Set. A&. A&))) (= (ext_eq false (TYPE%vstd!set.Set. A&. A&) s1! s2!) (forall ((a$ Poly)) (! (=> (has_type a$ A&) (= (vstd!set.impl&%0.contains.? A&. A& s1! a$) (vstd!set.impl&%0.contains.? A&. A& s2! a$))) :pattern ((vstd!set.impl&%0.contains.? A&. A& s1! a$)) :pattern ((vstd!set.impl&%0.contains.? A&. A& s2! a$)) )))) :pattern ((ext_eq false (TYPE%vstd!set.Set. A&. A&) s1! s2!)) ))))
(assert (=> (fuel_bool fuel%vstd!set.axiom_set_ext_equal_deep.) (forall ((A&. Dcr) (A& Type) (s1! Poly) (s2! Poly)) (! (=> (and (has_type s1! (TYPE%vstd!set.Set. A&. A&)) (has_type s2! (TYPE%vstd!set.Set. A&. A&))) (= (ext_eq true (TYPE%vstd!set.Set. A&. A&) s1! s2!) (ext_eq false (TYPE%vstd!set.Set. A&. A&) s1! s2!))) :pattern ((ext_eq true (TYPE%vstd!set.Set. A&. A&) s1! s2!)) ))))
(assert (=> (fuel_bool fuel%vstd!set.axiom_mk_map_domain.) (forall ((K&. Dcr) (K& Type) (V&. Dcr) (V& Type) (s! Poly) (f! Poly)) (! (=> (and (has_type s! (TYPE%vstd!set.Set. K&. K&)) (has_type f! (TYPE%fun%1. K&. K& V&. V&))) (= (vstd!map.impl&%0.dom.? K&. K& V&. V& (vstd!set.impl&%0.mk_map.? K&. K& V&. V& $ (TYPE%fun%1. K&. K& V&. V&) s! f!)) s!)) :pattern ((vstd!map.impl&%0.dom.? K&. K& V&. V& (vstd!set.impl&%0.mk_map.? K&. K& V&. V& $ (TYPE%fun%1. K&. K& V&. V&) s! f!))) ))))
(assert (=> (fuel_bool fuel%vstd!set.axiom_mk_map_index.) (forall ((K&. Dcr) (K& Type) (V&. Dcr) (V& Type) (s! Poly) (f! Poly) (key! Poly)) (! (=> (and (has_type s! (TYPE%vstd!set.Set. K&. K&)) (has_type f! (TYPE%fun%1. K&. K& V&. V&)) (has_type key! K&)) (=> (vstd!set.impl&%0.contains.? K&. K& s! key!) (= (vstd!map.impl&%0.index.? K&. K& V&. V& (vstd!set.impl&%0.mk_map.? K&. K& V&. V& $ (TYPE%fun%1. K&. K& V&. V&) s! f!) key!) (%%apply%%0 (%Poly%fun%1. f!) key!)))) :pattern ((vstd!map.impl&%0.index.? K&. K& V&. V& (vstd!set.impl&%0.mk_map.? K&. K& V&. V& $ (TYPE%fun%1. K&. K& V&. V&) s! f!) key!)) ))))
(assert (fuel_bool_default fuel%vstd!map_lib.impl&%0.contains_key.))
(assert (=> (fuel_bool fuel%vstd!map_lib.impl&%0.contains_key.) (forall ((K&. Dcr) (K& Type) (V&. Dcr) (V& Type) (self! Poly) (k! Poly)) (! (= (vstd!map_lib.impl&%0.contains_key.? K&. K& V&. V& self! k!) (vstd!set.impl&%0.contains.? K&. K& (vstd!map.impl&%0.dom.? K&. K& V&. V& self!) k!)) :pattern ((vstd!map_lib.impl&%0.contains_key.? K&. K& V&. V& self! k!)) ))))
(assert (fuel_bool_default fuel%vstd!map.impl&%0.new.))
(assert (=> (fuel_bool fuel%vstd!map.impl&%0.new.) (forall ((K&. Dcr) (K& Type) (V&. Dcr) (V& Type) (impl%2&. Dcr) (impl%2& Type) (impl%3&. Dcr) (impl%3& Type) (fk! Poly) (fv! Poly)) (! (= (vstd!map.impl&%0.new.? K&. K& V&. V& impl%2&. impl%2& impl%3&. impl%3& fk! fv!) (vstd!set.impl&%0.mk_map.? K&. K& V&. V& impl%3&. impl%3& (vstd!set.impl&%0.new.? K&. K& impl%2&. impl%2& fk!) fv!)) :pattern ((vstd!map.impl&%0.new.? K&. K& V&. V& impl%2&. impl%2& impl%3&. impl%3& fk! fv!)) ))))
(assert (forall ((K&. Dcr) (K& Type) (V&. Dcr) (V& Type) (impl%2&. Dcr) (impl%2& Type) (impl%3&. Dcr) (impl%3& Type) (fk! Poly) (fv! Poly)) (! (=> (and (has_type fk! impl%2&) (has_type fv! impl%3&)) (has_type (vstd!map.impl&%0.new.? K&. K& V&. V& impl%2&. impl%2& impl%3&. impl%3& fk! fv!) (TYPE%vstd!map.Map. K&. K& V&. V&))) :pattern ((vstd!map.impl&%0.new.? K&. K& V&. V& impl%2&. impl%2& impl%3&. impl%3& fk! fv!)) )))
(assert (fuel_bool_default fuel%lib!betree.Buffer_v.total_keys.))
(assert (=> (fuel_bool fuel%lib!betree.Buffer_v.total_keys.) (forall ((keys! Poly)) (! (= (lib!betree.Buffer_v.total_keys.? keys!) (forall ((k$ Poly)) (! (=> (has_type k$ TYPE%lib!spec.KeyType_t.Key.) (vstd!set.impl&%0.contains.? $ TYPE%lib!spec.KeyType_t.Key. keys! k$)) :pattern ((vstd!set.impl&%0.contains.? $ TYPE%lib!spec.KeyType_t.Key. keys! k$)) ))) :pattern ((lib!betree.Buffer_v.total_keys.? keys!)) ))))
(assert (fuel_bool_default fuel%lib!betree.OffsetMap_v.impl&%0.decrement.))
(declare-fun %%lambda%%0 (Dcr Type Poly) %%Function%%)
(assert (forall ((%%hole%%0 Dcr) (%%hole%%1 Type) (%%hole%%2 Poly) (k$ Poly)) (! (= (%%apply%%0 (%%lambda%%0 %%hole%%0 %%hole%%1 %%hole%%2) k$) (B (vstd!set.impl&%0.contains.? %%hole%%0 %%hole%%1 %%hole%%2 k$))) :pattern ((%%apply%%0 (%%lambda%%0 %%hole%%0 %%hole%%1 %%hole%%2) k$)))))
(declare-fun %%lambda%%1 (Dcr Type Dcr Type Poly Int Dcr Type Dcr Type Poly Int Int) %%Function%%)
(assert (forall ((%%hole%%0 Dcr) (%%hole%%1 Type) (%%hole%%2 Dcr) (%%hole%%3 Type) (%%hole%%4 Poly) (%%hole%%5 Int) (%%hole%%6 Dcr) (%%hole%%7 Type) (%%hole%%8 Dcr) (%%hole%%9 Type) (%%hole%%10 Poly) (%%hole%%11 Int) (%%hole%%12 Int) (k$ Poly)) (! (= (%%apply%%0 (%%lambda%%1 %%hole%%0 %%hole%%1 %%hole%%2 %%hole%%3 %%hole%%4 %%hole%%5 %%hole%%6 %%hole%%7 %%hole%%8 %%hole%%9 %%hole%%10 %%hole%%11 %%hole%%12) k$) (I (ite (<= %%hole%%5 (%I (vstd!map.impl&%0.index.? %%hole%%0 %%hole%%1 %%hole%%2 %%hole%%3 %%hole%%4 k$))) (nClip (Sub (%I (vstd!map.impl&%0.index.? %%hole%%6 %%hole%%7 %%hole%%8 %%hole%%9 %%hole%%10 k$)) %%hole%%11)) %%hole%%12))) :pattern ((%%apply%%0 (%%lambda%%1 %%hole%%0 %%hole%%1 %%hole%%2 %%hole%%3 %%hole%%4 %%hole%%5 %%hole%%6 %%hole%%7 %%hole%%8 %%hole%%9 %%hole%%10 %%hole%%11 %%hole%%12) k$)))))
(assert (=> (fuel_bool fuel%lib!betree.OffsetMap_v.impl&%0.decrement.) (forall ((self! Poly) (i! Poly)) (! (= (lib!betree.OffsetMap_v.impl&%0.decrement.? self! i!) (lib!betree.OffsetMap_v.OffsetMap./OffsetMap (%Poly%vstd!map.Map<lib!spec.KeyType_t.Key./nat.>. (vstd!map.impl&%0.new.? $ TYPE%lib!spec.KeyType_t.Key. $ NAT $ (TYPE%fun%1. $ TYPE%lib!spec.KeyType_t.Key. $ BOOL) $ (TYPE%fun%1. $ TYPE%lib!spec.KeyType_t.Key. $ NAT) (Poly%fun%1. (mk_fun (%%lambda%%0 $ TYPE%lib!spec.KeyType_t.Key. (vstd!map.impl&%0.dom.? $ TYPE%lib!spec.KeyType_t.Key. $ NAT (Poly%vstd!map.Map<lib!spec.KeyType_t.Key./nat.>. (lib!betree.OffsetMap_v.OffsetMap./OffsetMap/offsets (%Poly%lib!betree.OffsetMap_v.OffsetMap. self!))))))) (Poly%fun%1. (mk_fun (%%lambda%%1 $ TYPE%lib!spec.KeyType_t.Key. $ NAT (Poly%vstd!map.Map<lib!spec.KeyType_t.Key./nat.>. (lib!betree.OffsetMap_v.OffsetMap./OffsetMap/offsets (%Poly%lib!betree.OffsetMap_v.OffsetMap. self!))) (%I i!) $ TYPE%lib!spec.KeyType_t.Key. $ NAT (Poly%vstd!map.Map<lib!spec.KeyType_t.Key./nat.>. (lib!betree.OffsetMap_v.OffsetMap./OffsetMap/offsets (%Poly%lib!betree.OffsetMap_v.OffsetMap. self!))) (%I i!) 0))))))) :pattern ((lib!betree.OffsetMap_v.impl&%0.decrement.? self! i!)) ))))
(assert (fuel_bool_default fuel%lib!betree.OffsetMap_v.impl&%0.is_total.))
(assert (=> (fuel_bool fuel%lib!betree.OffsetMap_v.impl&%0.is_total.) (forall ((self! Poly)) (! (= (lib!betree.OffsetMap_v.impl&%0.is_total.? self!) (lib!betree.Buffer_v.total_keys.? (vstd!map.impl&%0.dom.? $ TYPE%lib!spec.KeyType_t.Key. $ NAT (Poly%vstd!map.Map<lib!spec.KeyType_t.Key./nat.>. (lib!betree.OffsetMap_v.OffsetMap./OffsetMap/offsets (%Poly%lib!betree.OffsetMap_v.OffsetMap. self!)))))) :pattern ((lib!betree.OffsetMap_v.impl&%0.is_total.? self!)) ))))
(declare-fun req%lib!betree.OffsetMap_v.impl&%0.active_keys. (Poly Poly) Bool)
(declare-const %%global_location_label%%2 Bool)
(assert (forall ((self! Poly) (offset! Poly)) (! (= (req%lib!betree.OffsetMap_v.impl&%0.active_keys. self! offset!) (=> %%global_location_label%%2 (lib!betree.OffsetMap_v.impl&%0.is_total.? self!))) :pattern ((req%lib!betree.OffsetMap_v.impl&%0.active_keys. self! offset!)) )))
(declare-const %return! vstd!set.Set<lib!spec.KeyType_t.Key.>.)
(declare-const self! Poly)
(declare-const offset! Poly)
(declare-const k@ Poly)
(assert fuel_defaults)
(assert (has_type self! TYPE%lib!betree.OffsetMap_v.OffsetMap.))
(assert (has_type offset! NAT))
(assert (not true))
(check-sat)
(exit)
